COLUMNS

passenger_count
pickup_ID
dropoff_ID
request_time_sec
pickup_district
LDuals
IDuals
vehicle_ID
pick_position
drop_position
REQUESTS_INFO
1      577       250       68368     189       129       129       29        1         3         
2      723       605       68357     290       170       163       45        1         3         
1      606       885       68343     189       104       104       48        1         3         
3      717       790       68359     189       153       153       85        1         3         
2      700       969       68318     290       209       203       138       1         3         
1      904       860       68348     290       118       118       194       1         2         
4      434       230       68366     52        134       134       225       1         2         
1      627       770       68352     189       114       114       265       1         3         
3      546       462       68348     52        127       127       347       1         2         
2      481       579       68306     189       200       200       355       1         2         
2      462       179       68368     189       98        98        469       1         3         
1      580       947       68362     189       103       103       505       1         2         
2      811       839       68351     290       170       170       519       1         2         
2      527       668       68355     52        155       155       530       1         3         
3      460       464       68362     189       150       148       647       1         2         
1      744       906       68361     290       147       147       672       1         2         
1      687       521       68316     131       180       180       690       1         3         
1      481       577       68356     189       137       118       781       1         2         
3      1044      431       68358     291       128       128       813       1         2         
1      738       745       68289     189       213       213       877       1         2         
1      766       984       68362     290       131       131       891       1         3         
2      1044      431       68358     291       128       128       1007      1         4         
1      717       665       68363     189       149       149       1055      1         2         
2      743       826       68353     290       173       173       1116      1         2         
1      724       620       68355     290       140       140       1197      1         2         
1      486       557       68357     199       122       122       1223      1         2         
1      456       335       68367     52        108       108       1249      1         2         
1      464       606       68340     168       153       153       1301      1         3         
4      649       485       68352     189       143       143       1340      1         2         
2      743       862       68342     290       191       191       1395      1         3         
2      354       397       68364     119       114       114       1396      1         2         
2      664       1386      68363     131       122       122       1571      1         2         
3      813       582       68358     290       157       157       1598      1         3         
1      701       621       68356     290       139       139       1613      1         3         
1      716       485       68347     189       151       151       1627      1         2         
2      813       328       68369     290       146       146       1684      1         2         
2      414       433       68354     100       81        81        1696      1         2         
1      791       1046      68367     290       130       130       1795      1         3         
2      120       177       68362     57        140       140       1855      1         2         
1      720       676       68360     290       166       167       1975      1         3         
1      720       884       68362     290       166       165       1975      2         4         
1      771       883       68356     290       92        92        2002      1         4         
2      936       850       68365     291       96        96        2124      1         2         
1      689       715       68338     131       142       142       2183      1         2         
1      766       927       68347     290       172       172       2304      1         2         
1      720       330       68364     290       160       160       2334      1         3         
1      789       527       68349     290       152       152       2347      1         3         
1      462       505       68322     189       157       157       2405      1         2         
2      325       767       68370     299       0         0         0         0         0         
1      914       1085      68370     291       0         0         0         0         0         
1      648       970       68370     189       0         0         0         0         0         
2      531       394       68371     189       0         0         0         0         0         
1      476       638       68371     52        0         0         0         0         0         
1      883       743       68371     290       0         0         0         0         0         
1      719       481       68371     189       0         0         0         0         0         
1      1207      1002      68371     192       0         0         0         0         0         
1      481       331       68371     189       0         0         0         0         0         
1      255       694       68371     87        0         0         0         0         0         
1      865       938       68371     290       0         0         0         0         0         
1      178       392       68372     178       0         0         0         0         0         
1      444       738       68372     168       0         0         0         0         0         
1      523       409       68372     52        0         0         0         0         0         
1      691       914       68372     131       0         0         0         0         0         
1      1087      894       68372     291       0         0         0         0         0         
1      1046      803       68372     291       0         0         0         0         0         
1      256       655       68372     87        0         0         0         0         0         
1      293       209       68372     87        0         0         0         0         0         
2      479       208       68372     52        0         0         0         0         0         
1      883       551       68372     290       0         0         0         0         0         
1      827       551       68372     291       0         0         0         0         0         
1      389       374       68372     299       0         0         0         0         0         
1      191       306       68373     266       0         0         0         0         0         
1      1066      827       68373     291       0         0         0         0         0         
2      1132      1087      68374     291       0         0         0         0         0         
1      510       606       68374     199       0         0         0         0         0         
3      928       1079      68374     290       0         0         0         0         0         
1      374       680       68374     119       0         0         0         0         0         
3      252       255       68374     206       0         0         0         0         0         
3      252       255       68374     206       0         0         0         0         0         
3      692       802       68374     280       0         0         0         0         0         
2      692       802       68374     280       0         0         0         0         0         
1      1003      1615      68374     291       0         0         0         0         0         
1      720       950       68374     290       0         0         0         0         0         
1      439       827       68374     189       0         0         0         0         0         
1      171       387       68375     286       0         0         0         0         0         
1      115       154       68375     9         0         0         0         0         0         
1      330       549       68375     127       0         0         0         0         0         
1      605       738       68375     189       0         0         0         0         0         
1      345       804       68375     299       0         0         0         0         0         
1      691       848       68375     131       0         0         0         0         0         
1      781       313       68376     291       0         0         0         0         0         
1      759       622       68376     131       0         0         0         0         0         
1      842       838       68376     290       0         0         0         0         0         
2      336       474       68376     277       0         0         0         0         0         
2      601       651       68376     189       0         0         0         0         0         
1      652       10        68376     189       0         0         0         0         0         
1      1251      1207      68377     129       0         0         0         0         0         
1      64        189       68377     98        0         0         0         0         0         
1      760       1556      68377     291       0         0         0         0         0         
1      780       916       68377     291       0         0         0         0         0         
4      200       195       68377     87        0         0         0         0         0         
1      259       232       68377     87        0         0         0         0         0         
1      924       766       68378     290       0         0         0         0         0         
3      377       700       68378     168       0         0         0         0         0         
1      35        92        68378     98        0         0         0         0         0         
1      395       462       68378     100       0         0         0         0         0         
3      377       700       68378     168       0         0         0         0         0         
2      688       800       68378     131       0         0         0         0         0         
1      858       1161      68379     290       0         0         0         0         0         
1      722       863       68379     290       0         0         0         0         0         
2      693       804       68379     280       0         0         0         0         0         
1      390       364       68379     52        0         0         0         0         0         
1      914       1106      68379     291       0         0         0         0         0         
2      416       624       68379     100       0         0         0         0         0         
2      691       557       68379     131       0         0         0         0         0         
2      629       817       68379     189       0         0         0         0         0         
3      629       817       68379     189       0         0         0         0         0         
2      760       981       68380     291       0         0         0         0         0         
3      760       981       68380     291       0         0         0         0         0         
1      115       295       68380     9         0         0         0         0         0         
1      408       338       68380     299       0         0         0         0         0         
1      760       511       68380     291       0         0         0         0         0         
1      605       584       68380     189       0         0         0         0         0         
1      916       345       68380     291       0         0         0         0         0         
1      273       351       68381     206       0         0         0         0         0         
1      240       674       68381     87        0         0         0         0         0         
2      460       269       68381     189       0         0         0         0         0         
2      504       556       68381     52        0         0         0         0         0         
1      651       1324      68381     189       0         0         0         0         0         
1      816       767       68381     290       0         0         0         0         0         
3      694       645       68381     189       0         0         0         0         0         
3      694       645       68381     189       0         0         0         0         0         
2      779       894       68382     131       0         0         0         0         0         
2      779       1002      68382     131       0         0         0         0         0         
1      142       250       68382     54        0         0         0         0         0         
1      230       45        68382     266       0         0         0         0         0         
1      420       293       68382     168       0         0         0         0         0         
1      699       779       68382     290       0         0         0         0         0         
1      603       413       68382     189       0         0         0         0         0         
1      21        442       68383     98        0         0         0         0         0         
1      258       373       68383     87        0         0         0         0         0         
2      739       1168      68383     189       0         0         0         0         0         
1      693       646       68383     280       0         0         0         0         0         
1      476       287       68384     52        0         0         0         0         0         
1      544       1048      68384     52        0         0         0         0         0         
1      600       513       68384     280       0         0         0         0         0         
1      605       699       68384     189       0         0         0         0         0         
2      814       743       68384     290       0         0         0         0         0         
3      814       743       68384     290       0         0         0         0         0         
1      392       397       68384     52        0         0         0         0         0         
4      526       858       68384     52        0         0         0         0         0         
1      687       888       68384     131       0         0         0         0         0         
1      338       507       68385     277       0         0         0         0         0         
1      196       311       68385     178       0         0         0         0         0         
1      210       181       68385     266       0         0         0         0         0         
1      677       627       68385     189       0         0         0         0         0         
1      347       475       68385     299       0         0         0         0         0         
4      715       420       68385     131       0         0         0         0         0         
1      643       711       68385     131       0         0         0         0         0         
1      464       581       68385     168       0         0         0         0         0         
1      556       419       68385     199       0         0         0         0         0         
1      723       827       68386     290       0         0         0         0         0         
1      554       485       68386     189       0         0         0         0         0         
1      578       208       68386     189       0         0         0         0         0         
2      551       210       68386     189       0         0         0         0         0         
1      1036      906       68386     84        0         0         0         0         0         
1      373       162       68386     119       0         0         0         0         0         
1      308       455       68386     127       0         0         0         0         0         
1      1066      995       68386     291       0         0         0         0         0         
1      927       862       68386     290       0         0         0         0         0         
1      328       436       68386     299       0         0         0         0         0         
1      533       609       68387     199       0         0         0         0         0         
1      676       827       68387     189       0         0         0         0         0         
1      294       630       68387     87        0         0         0         0         0         
2      670       627       68387     280       0         0         0         0         0         
2      430       508       68387     52        0         0         0         0         0         
3      679       748       68388     290       0         0         0         0         0         
2      926       1011      68388     290       0         0         0         0         0         
3      926       1011      68388     290       0         0         0         0         0         
3      679       748       68388     290       0         0         0         0         0         
1      579       810       68388     189       0         0         0         0         0         
3      981       916       68388     291       0         0         0         0         0         
4      662       737       68388     131       0         0         0         0         0         
1      645       436       68388     280       0         0         0         0         0         
1      960       748       68388     291       0         0         0         0         0         
1      130       464       68388     178       0         0         0         0         0         
2      864       623       68388     290       0         0         0         0         0         
1      894       1047      68388     291       0         0         0         0         0         
3      720       673       68388     290       0         0         0         0         0         
3      720       673       68388     290       0         0         0         0         0         
1      548       780       68389     52        0         0         0         0         0         
1      770       862       68389     290       0         0         0         0         0         
1      413       528       68389     52        0         0         0         0         0         
1      293       274       68389     87        0         0         0         0         0         
1      695       439       68389     189       0         0         0         0         0         
1      35        215       68389     98        0         0         0         0         0         
3      827       527       68390     291       0         0         0         0         0         
3      827       527       68390     291       0         0         0         0         0         
1      642       1067      68390     131       0         0         0         0         0         
1      454       1043      68390     52        0         0         0         0         0         
1      433       689       68390     52        0         0         0         0         0         
1      607       512       68390     189       0         0         0         0         0         
1      80        409       68390     98        0         0         0         0         0         
4      950       1319      68390     290       0         0         0         0         0         
1      533       389       68390     199       0         0         0         0         0         
2      504       410       68391     52        0         0         0         0         0         
2      767       960       68391     290       0         0         0         0         0         
3      767       960       68391     290       0         0         0         0         0         
1      412       192       68391     52        0         0         0         0         0         
3      504       410       68391     52        0         0         0         0         0         
4      234       465       68392     87        0         0         0         0         0         
1      759       690       68392     131       0         0         0         0         0         
2      414       355       68392     100       0         0         0         0         0         
1      759       1011      68392     131       0         0         0         0         0         
1      350       312       68392     127       0         0         0         0         0         
1      991       749       68392     290       0         0         0         0         0         
1      848       971       68393     291       0         0         0         0         0         
1      646       550       68393     280       0         0         0         0         0         
1      903       1212      68393     290       0         0         0         0         0         
1      699       1373      68393     290       0         0         0         0         0         
1      256       143       68393     87        0         0         0         0         0         
1      621       527       68393     280       0         0         0         0         0         
1      1169      1265      68393     291       0         0         0         0         0         
1      759       1207      68393     131       0         0         0         0         0         
1      295       337       68393     87        0         0         0         0         0         
1      535       452       68393     189       0         0         0         0         0         
1      1230      1195      68394     129       0         0         0         0         0         
1      671       839       68394     280       0         0         0         0         0         
3      558       198       68394     189       0         0         0         0         0         
1      463       19        68394     168       0         0         0         0         0         
1      827       522       68394     291       0         0         0         0         0         
1      654       486       68394     189       0         0         0         0         0         
1      715       307       68395     131       0         0         0         0         0         
1      526       372       68395     52        0         0         0         0         0         
2      940       840       68395     291       0         0         0         0         0         
1      332       528       68395     87        0         0         0         0         0         
1      21        258       68395     98        0         0         0         0         0         
1      254       118       68395     87        0         0         0         0         0         
1      894       507       68396     291       0         0         0         0         0         
2      393       739       68396     52        0         0         0         0         0         
2      191       475       68396     266       0         0         0         0         0         
1      526       892       68396     52        0         0         0         0         0         
2      968       812       68396     290       0         0         0         0         0         
1      847       894       68396     291       0         0         0         0         0         
3      1251      1181      68396     129       0         0         0         0         0         
1      914       791       68396     291       0         0         0         0         0         
1      354       266       68396     119       0         0         0         0         0         
1      193       238       68397     266       0         0         0         0         0         
3      737       643       68397     189       0         0         0         0         0         
1      527       905       68397     52        0         0         0         0         0         
3      273       499       68397     206       0         0         0         0         0         
1      530       393       68397     189       0         0         0         0         0         
1      718       1676      68397     189       0         0         0         0         0         
3      345       455       68397     299       0         0         0         0         0         
2      603       454       68397     189       0         0         0         0         0         
3      603       454       68397     189       0         0         0         0         0         
2      195       409       68397     207       0         0         0         0         0         
3      195       409       68397     207       0         0         0         0         0         
2      345       455       68397     299       0         0         0         0         0         
1      154       478       68398     286       0         0         0         0         0         
1      217       347       68398     87        0         0         0         0         0         
1      80        649       68398     98        0         0         0         0         0         
1      371       442       68398     52        0         0         0         0         0         
1      571       195       68398     52        0         0         0         0         0         
1      652       837       68398     189       0         0         0         0         0         
3      677       255       68398     189       0         0         0         0         0         
3      677       255       68398     189       0         0         0         0         0         
1      189       269       68399     286       0         0         0         0         0         
3      724       624       68399     290       0         0         0         0         0         
2      724       624       68399     290       0         0         0         0         0         
2      483       644       68399     189       0         0         0         0         0         
1      333       463       68399     119       0         0         0         0         0         
1      1066      788       68399     291       0         0         0         0         0         
3      1059      1177      68399     84        0         0         0         0         0         
2      436       509       68399     100       0         0         0         0         0         
1      364       115       68399     299       0         0         0         0         0         
1      481       312       68399     189       0         0         0         0         0         
